c b=2,c=63
p cnf 10 24
1 2 -4 0
1 2 -5 0
1 2 -6 0
1 2 -7 0
1 2 -8 0
2 -9 0
1 -2 4 0
-2 5 0
-2 6 0
-2 7 0
-2 8 0
1 -2 9 0
1 -3 0
1 -10 0
-1 2 4 0
2 -10 0
-1 -2 -4 0
-1 -2 10 0
-1 3 0
-1 5 0
-1 6 0
-1 7 0
-1 8 0
-1 -9 0
